La2CCl2  (n=1)
1.00000000000000
4.0076703545503172  0.0000000000000000  0.0000000000000000
-2.0038351772751586  3.4707443369965363  0.0000000000000000
0.0000000000000000  0.0000000000000000  36.5223780318582172
La  C  Cl
2  1  2
Selective  dynamics
Direct
1.0000000000000000  0.0000000000000000  0.0489980998009545  T  T  T
0.6666666666666643  0.3333333333333357  0.1295876983682883  T  T  T
0.3333333333333357  0.6666666666666643  0.0892928990846249  T  T  T
0.6666666666666643  0.3333333333333357  0.0000000000000000  T  T  T
1.0000000000000000  0.0000000000000000  0.1785857981692428  T  T  T

0.00000000E+00  0.00000000E+00  0.00000000E+00
0.00000000E+00  0.00000000E+00  0.00000000E+00
0.00000000E+00  0.00000000E+00  0.00000000E+00
0.00000000E+00  0.00000000E+00  0.00000000E+00
0.00000000E+00  0.00000000E+00  0.00000000E+00
