La3C2S2  (n=2)
1.00000000000000
4.2861935235753377  0.0000000000000000  0.0000000000000000
-2.1430967617876688  3.7119524769121219  0.0000000000000000
0.0000000000000000  0.0000000000000000  37.8399552819810694
La  C  S
3  2  2
Selective  dynamics
Direct
1.0000000000000000  0.0000000000000000  0.0317124025115260  T  T  T
0.6666666666666643  0.3333333333333357  0.1015441192122840  T  T  T
0.3333333333333357  0.6666666666666643  0.1764099764289751  T  T  T
0.3333333333333357  0.6666666666666643  0.0504780789438395  T  T  T
0.0000000000000000  0.0000000000000000  0.1242992288335383  T  T  T
0.3333333333333357  0.6666666666666643  0.0000000000000000  T  T  T
0.6666666666666643  0.3333333333333357  0.2071872237574858  T  T  T

0.00000000E+00  0.00000000E+00  0.00000000E+00
0.00000000E+00  0.00000000E+00  0.00000000E+00
0.00000000E+00  0.00000000E+00  0.00000000E+00
0.00000000E+00  0.00000000E+00  0.00000000E+00
0.00000000E+00  0.00000000E+00  0.00000000E+00
0.00000000E+00  0.00000000E+00  0.00000000E+00
0.00000000E+00  0.00000000E+00  0.00000000E+00
