La3C2O2H2  (n=2)
1.00000000000000
3.7300739989129963  0.0000000000000000  0.0000000000000000
-1.8650369994564981  3.2303388410192575  0.0000000000000000
0.0000000000000000  0.0000000000000000  41.2553712433365121
La  C  O  H
3  2  2  2
Selective  dynamics
Direct
0.0000000000000000  0.0000000000000000  0.0599484275579396  T  T  T
0.0000000000000000  0.0000000000000000  0.1372213044448281  T  T  T
0.0000000000000000  0.0000000000000000  0.2142559081172486  T  T  T
0.3333333333333357  0.6666666666666643  0.0961573433677133  T  T  T
0.3333333333333357  0.6666666666666643  0.1799692260797910  T  T  T
0.3333333333333357  0.6666666666666643  0.0236205862810469  T  T  T
0.6666666666666643  0.3333333333333357  0.2492556715971640  T  T  T
0.3333333333333357  0.6666666666666643  0.0000000000000000  T  T  T
0.6666666666666643  0.3333333333333357  0.2728219600048917  T  T  T

0.00000000E+00  0.00000000E+00  0.00000000E+00
0.00000000E+00  0.00000000E+00  0.00000000E+00
0.00000000E+00  0.00000000E+00  0.00000000E+00
0.00000000E+00  0.00000000E+00  0.00000000E+00
0.00000000E+00  0.00000000E+00  0.00000000E+00
0.00000000E+00  0.00000000E+00  0.00000000E+00
0.00000000E+00  0.00000000E+00  0.00000000E+00
0.00000000E+00  0.00000000E+00  0.00000000E+00
0.00000000E+00  0.00000000E+00  0.00000000E+00
