La4N3I2  (n=3)
1.00000000000000
3.8378576067362324  0.0000000000000000  0.0000000000000000
-1.9189288033681162  3.3236821835047010  0.0000000000000000
0.0000000000000000  0.0000000000000000  43.6099270461635271
La  N  I
4  3  2
Selective  dynamics
Direct
0.0000000000000000  0.0000000000000000  0.0548517607329322  T  T  T
0.6666666666666643  0.3333333333333357  0.1228309325629279  T  T  T
0.3333333333333357  0.6666666666666643  0.1892523009576570  T  T  T
0.0000000000000000  0.0000000000000000  0.2572314727876527  T  T  T
0.3333333333333357  0.6666666666666643  0.0837149375545591  T  T  T
0.0000000000000000  0.0000000000000000  0.1560416167602959  T  T  T
0.6666666666666643  0.3333333333333357  0.2283682959660258  T  T  T
0.3333333333333357  0.6666666666666643  0.0000000000000000  T  T  T
0.6666666666666643  0.3333333333333357  0.3120832335205849  T  T  T

0.00000000E+00  0.00000000E+00  0.00000000E+00
0.00000000E+00  0.00000000E+00  0.00000000E+00
0.00000000E+00  0.00000000E+00  0.00000000E+00
0.00000000E+00  0.00000000E+00  0.00000000E+00
0.00000000E+00  0.00000000E+00  0.00000000E+00
0.00000000E+00  0.00000000E+00  0.00000000E+00
0.00000000E+00  0.00000000E+00  0.00000000E+00
0.00000000E+00  0.00000000E+00  0.00000000E+00
0.00000000E+00  0.00000000E+00  0.00000000E+00
