#===============================================================================
# La2CCl2 Example in FHI-AIMS
#=======================================================
lattice_vector 4.0076703545503172 0.0000000000000000 0.0000000000000000 
lattice_vector -2.0038351772751586 3.4707443369965363 0.0000000000000000 
lattice_vector 0.0000000000000000 0.0000000000000000 36.5223780318582172 
atom_frac 1.0000000000000000 0.0000000000000000 0.0489980998009545 La
atom_frac 0.6666666666666642 0.3333333333333356 0.1295876983682883 La
atom_frac 0.3333333333333356 0.6666666666666642 0.0892928990846249 C
atom_frac 0.6666666666666642 0.3333333333333356 0.0000000000000000 Cl
atom_frac 1.0000000000000000 0.0000000000000000 0.1785857981692428 Cl
