La4N3N2H2  (n=3)
1.00000000000000
3.7499228414166299  0.0000000000000000  0.0000000000000000
-1.8749614207083150  3.2475284428629316  0.0000000000000000
0.0000000000000000  0.0000000000000000  43.6654434086257623
La  N  H
4  5  2
Selective  dynamics
Direct
0.0000000000000000  0.0000000000000000  0.0476019328899887  T  T  T
0.6666666666666643  0.3333333333333357  0.1205391325509957  T  T  T
0.3333333333333357  0.6666666666666643  0.1923396592611973  T  T  T
0.0000000000000000  0.0000000000000000  0.2653194027257240  T  T  T
0.3333333333333357  0.6666666666666643  0.0906684995919418  T  T  T
0.0000000000000000  0.0000000000000000  0.1564733473319562  T  T  T
0.6666666666666643  0.3333333333333357  0.2222717294191300  T  T  T
0.3333333333333357  0.6666666666666643  0.0236980505007186  T  T  T
0.6666666666666643  0.3333333333333357  0.2892581381998975  T  T  T
0.3333333333333357  0.6666666666666643  0.0000000000000000  T  T  T
0.6666666666666643  0.3333333333333357  0.3129578527519604  T  T  T

0.00000000E+00  0.00000000E+00  0.00000000E+00
0.00000000E+00  0.00000000E+00  0.00000000E+00
0.00000000E+00  0.00000000E+00  0.00000000E+00
0.00000000E+00  0.00000000E+00  0.00000000E+00
0.00000000E+00  0.00000000E+00  0.00000000E+00
0.00000000E+00  0.00000000E+00  0.00000000E+00
0.00000000E+00  0.00000000E+00  0.00000000E+00
0.00000000E+00  0.00000000E+00  0.00000000E+00
0.00000000E+00  0.00000000E+00  0.00000000E+00
0.00000000E+00  0.00000000E+00  0.00000000E+00
0.00000000E+00  0.00000000E+00  0.00000000E+00
