La2CTe2  (n=1)
1.00000000000000
4.3914553981671665  0.0000000000000000  0.0000000000000000
-2.1957276990835832  3.8031119343576227  0.0000000000000000
0.0000000000000000  0.0000000000000000  36.3990497472471972
La  C  Te
2  1  2
Selective  dynamics
Direct
0.0000000000000000  0.0000000000000000  0.0483600890960157  T  T  T
0.0000000000000000  0.0000000000000000  0.1274425703602561  T  T  T
0.3333333333333357  0.6666666666666643  0.0879013297281394  T  T  T
0.3333333333333357  0.6666666666666643  0.0000000000000000  T  T  T
0.3333333333333357  0.6666666666666643  0.1758026594562719  T  T  T

0.00000000E+00  0.00000000E+00  0.00000000E+00
0.00000000E+00  0.00000000E+00  0.00000000E+00
0.00000000E+00  0.00000000E+00  0.00000000E+00
0.00000000E+00  0.00000000E+00  0.00000000E+00
0.00000000E+00  0.00000000E+00  0.00000000E+00
