La2CN2H2  (n=1)
1.00000000000000
3.9053267888829666  0.0000000000000000  0.0000000000000000
-1.9526633944414833  3.3821122092156952  0.0000000000000000
0.0000000000000000  0.0000000000000000  37.4285674084436479
La  C  N  H
2  1  2  2
Selective  dynamics
Direct
0.0000000000000000  0.0000000000000000  0.0519961440713083  T  T  T
0.6666666666666643  0.3333333333333357  0.1464711717607990  T  T  T
0.3333333333333357  0.6666666666666643  0.0992531112537640  T  T  T
0.6666666666666643  0.3333333333333357  0.0277257494745157  T  T  T
0.0000000000000000  0.0000000000000000  0.1707478035004193  T  T  T
0.6666666666666643  0.3333333333333357  0.0000000000000000  T  T  T
0.0000000000000000  0.0000000000000000  0.1984731963523619  T  T  T

0.00000000E+00  0.00000000E+00  0.00000000E+00
0.00000000E+00  0.00000000E+00  0.00000000E+00
0.00000000E+00  0.00000000E+00  0.00000000E+00
0.00000000E+00  0.00000000E+00  0.00000000E+00
0.00000000E+00  0.00000000E+00  0.00000000E+00
0.00000000E+00  0.00000000E+00  0.00000000E+00
0.00000000E+00  0.00000000E+00  0.00000000E+00
