La4C3Cl2  (n=3)
1.00000000000000
3.7810550628610078  0.0000000000000000  0.0000000000000000
-1.8905275314305039  3.2744897375097124  0.0000000000000000
0.0000000000000000  0.0000000000000000  43.4728688860642905
La  C  Cl
4  3  2
Selective  dynamics
Direct
0.0000000000000000  0.0000000000000000  0.0452553482725782  T  T  T
0.0000000000000000  0.0000000000000000  0.1175683053217529  T  T  T
0.0000000000000000  0.0000000000000000  0.1923474579978718  T  T  T
0.0000000000000000  0.0000000000000000  0.2654627193131856  T  T  T
0.3333333333333357  0.6666666666666643  0.0788848025519977  T  T  T
0.3333333333333357  0.6666666666666643  0.1583300585840350  T  T  T
0.3333333333333357  0.6666666666666643  0.2349294111757579  T  T  T
0.3333333333333357  0.6666666666666643  0.0000000000000000  T  T  T
0.6666666666666643  0.3333333333333357  0.3099144186084108  T  T  T

0.00000000E+00  0.00000000E+00  0.00000000E+00
0.00000000E+00  0.00000000E+00  0.00000000E+00
0.00000000E+00  0.00000000E+00  0.00000000E+00
0.00000000E+00  0.00000000E+00  0.00000000E+00
0.00000000E+00  0.00000000E+00  0.00000000E+00
0.00000000E+00  0.00000000E+00  0.00000000E+00
0.00000000E+00  0.00000000E+00  0.00000000E+00
0.00000000E+00  0.00000000E+00  0.00000000E+00
0.00000000E+00  0.00000000E+00  0.00000000E+00
