La3N2H2  (n=2)
1.00000000000000
3.6784732972675567  0.0000000000000000  0.0000000000000000
-1.8392366486337783  3.1856513225416911  0.0000000000000000
0.0000000000000000  0.0000000000000000  38.6392348543600903
La  N  H
3  2  2
Selective  dynamics
Direct
0.0000000000000000  0.0000000000000000  0.0305475282774775  T  T  T
0.0000000000000000  0.0000000000000000  0.1117935550085686  T  T  T
0.0000000000000000  0.0000000000000000  0.1930395817396670  T  T  T
0.3333333333333357  0.6666666666666643  0.0670692068449268  T  T  T
0.3333333333333357  0.6666666666666643  0.1565179031722176  T  T  T
0.6666666666666643  0.3333333333333357  0.0000000000000000  T  T  T
0.6666666666666643  0.3333333333333357  0.2235871100171444  T  T  T

0.00000000E+00  0.00000000E+00  0.00000000E+00
0.00000000E+00  0.00000000E+00  0.00000000E+00
0.00000000E+00  0.00000000E+00  0.00000000E+00
0.00000000E+00  0.00000000E+00  0.00000000E+00
0.00000000E+00  0.00000000E+00  0.00000000E+00
0.00000000E+00  0.00000000E+00  0.00000000E+00
0.00000000E+00  0.00000000E+00  0.00000000E+00
